args: ../partial/bp/M9.cnf cubes/M9.cubes 100 50 25
iteration: 0
running icadical
lim: 100
refuted: 32470, progress: 32470/148624

iteration: 1
running icadical
lim: 100
refuted: 20988, progress: 53458/148624

iteration: 2
running icadical
lim: 100
refuted: 27264, progress: 80722/148624

iteration: 3
running icadical
lim: 100
refuted: 18487, progress: 99209/148624

iteration: 4
running icadical
lim: 100
refuted: 36211, progress: 135420/148624

iteration: 5
running icadical
lim: 100
refuted: 13204, progress: 148624/148624

c --- [ banner ] -------------------------------------------------------------
c 
c CaDiCaL Radically Simplified CDCL SAT Solver
c Copyright (c) 2016-2019 Armin Biere, JKU Linz
c 
c Version 1.2.1 92d72896c49b30ad2d50c8e1061ca0681cd23e60
c g++ (GCC) 4.8.5 20150623 (Red Hat 4.8.5-39) -Wall -Wextra -O3 -DNDEBUG -std=c++0x
c Thu Jan 30 22:37:32 EST 2020 Linux lov6.int.autonlab.org 3.10.0-1062.4.1.el7.x86_64 x86_64
c 
c --- [ parsing input ] ------------------------------------------------------
c 
c reading DIMACS file from '<stdin>' (use '-h' for a list of common options)
c found 'p cnf 3064 90219' header
c parsed 238843 clauses in 0.50 seconds process time
c disconnecting from '<stdin>'
c after reading 4276928 bytes 4.1 MB
c 
c --- [ options ] ------------------------------------------------------------
c 
c   --report=false                 (different from default 'true')
c 
c --- [ solving ] ------------------------------------------------------------
c 
c 
c --- [ result ] -------------------------------------------------------------
c 
s UNSATISFIABLE
c 
c --- [ run-time profiling ] -------------------------------------------------
c 
c process time taken by individual solving procedures
c (percentage relative to process time for solving)
c 
c         0.00   96.96% search
c         0.00   64.83% unstable
c         0.00   31.49% lucky
c         0.00    0.00% simplify
c   =================================
c         0.00    0.25% solve
c 
c last line shows process time for solving
c (percentage relative to total process time)
c 
c --- [ statistics ] ---------------------------------------------------------
c 
c chronological:                 4        50.00 %  of conflicts
c conflicts:                     8      6394.88    per second
c decisions:                    13     10391.69    per second
c fixed:                      1536        50.13 %  of all variables
c learned:                       7        87.50 %  per conflict
c minimized:                     0         0.00 %  learned literals
c propagations:                 38         0.03 M  per second
c restarts:                      1         8.00    interval
c 
c seconds are measured in process time for solving
c 
c --- [ resources ] ----------------------------------------------------------
c 
c total process time since initialization:         0.51    seconds
c total real time since initialization:            0.76    seconds
c maximum resident set size of process:           21.67    MB
c 
c --- [ shutting down ] ------------------------------------------------------
c 
c exit 20

real	5m22.100s
user	111m39.146s
sys	1m53.253s
